20190808 390 0 0 0
20180621 460 0 0 0
20170714 160 0 0 0
20160715 150 0 0 0
20150710 408 0 0 0
20140711 260 0 0 0
20130726 260 0 0 0
20120808 240 0 0 0
20110609 300 0 0 0
20100421 300 0 0 0
20090423 200 0 0 0
20081205 0 3000 0 0
20040709 45 0 0 0
20030611 93 3000 0 0
20020606 40 0 0 0
20010731 260 0 0 0
